RT is False
Default write of storage_offers_DA.csv just to have a file (but constraint should be inactive)
Reading model...
...model read.
creating competitive generators file...
...competitive generators recorded.
Loading data...
.. day-ahead data with real-time VRE data read.
Compiling instance...
...instance created.
Creating Offer Mitigation (model will solve as dispatch if TRUE)...
NOTE: storage offers will not be mitigated
...storage offer mitigation file created
Converting model to MPEC...
...converted
NOTE: initial MIP solve with only storage competitive to get feasible solution
Solving...

Welcome to IBM(R) ILOG(R) CPLEX(R) Interactive Optimizer 12.9.0.0
  with Simplex, Mixed Integer & Barrier Optimizers
5725-A06 5725-A29 5724-Y48 5724-Y49 5724-Y54 5724-Y55 5655-Y21
Copyright IBM Corp. 1988, 2019.  All Rights Reserved.

Type 'help' for a list of available commands.
Type 'help' followed by a command name for more
information on commands.

CPLEX> Logfile 'cplex.log' closed.
Logfile 'C:\Users\llavin\Desktop\test919\logs\tmp1jyj7xgk.cplex.log' open.
CPLEX> New value for parallel optimization mode: -1
CPLEX> New value for mixed integer optimality gap tolerance: 0.01
CPLEX> New value for integrality tolerance: 1e-09
CPLEX> New value for feasibility tolerance: 0.01
CPLEX> New value for deterministic time limit in ticks: 75000
CPLEX> Problem 'C:\Users\llavin\Desktop\test919\logs\tmp7__1fxp8.pyomo.lp' read.
Read time = 0.23 sec. (14.73 ticks)
CPLEX> Problem name         : C:\Users\llavin\Desktop\test919\logs\tmp7__1fxp8.pyomo.lp
Objective sense      : Maximize
Variables            :   53805  [Nneg: 1,  Box: 22000,  Free: 4464,
                                 Binary: 27340]
Objective nonzeros   :    9029
Linear constraints   :  123205  [Less: 41346,  Greater: 59096,  Equal: 22763]
  Nonzeros           :  291753
  RHS nonzeros       :   67491

Variables            : Min LB: -5000.000        Max UB: 1000000.       
Objective nonzeros   : Min   : 0.3083333        Max   : 2500.000       
Linear constraints   :
  Nonzeros           : Min   : 0.3083333        Max   : 1000000.       
  RHS nonzeros       : Min   : 0.3083333        Max   : 1000000.       
CPLEX> CPXPARAM_Parallel                                -1
CPXPARAM_Simplex_Tolerances_Feasibility          0.01
CPXPARAM_DetTimeLimit                            75000
CPXPARAM_MIP_Tolerances_MIPGap                   0.01
CPXPARAM_MIP_Tolerances_Integrality              1.0000000000000001e-09
Tried aggregator 3 times.
MIP Presolve eliminated 88645 rows and 18969 columns.
MIP Presolve added 3380 rows and 0 columns.
MIP Presolve modified 24862 coefficients.
Aggregator did 13009 substitutions.
Reduced MIP has 24931 rows, 21271 columns, and 71099 nonzeros.
Reduced MIP has 8414 binaries, 0 generals, 0 SOSs, and 0 indicators.
Presolve time = 0.30 sec. (173.79 ticks)
Probing fixed 387 vars, tightened 2889 bounds.
Probing time = 1.22 sec. (894.44 ticks)
Tried aggregator 2 times.
MIP Presolve eliminated 874 rows and 774 columns.
MIP Presolve modified 2213 coefficients.
Aggregator did 33 substitutions.
Reduced MIP has 24024 rows, 20464 columns, and 68478 nonzeros.
Reduced MIP has 8027 binaries, 0 generals, 0 SOSs, and 0 indicators.
Presolve time = 0.09 sec. (67.29 ticks)
Probing time = 0.05 sec. (16.02 ticks)
Clique table members: 6272.
MIP emphasis: balance optimality and feasibility.
MIP search method: dynamic search.
Parallel mode: opportunistic, using up to 32 threads.
Root relaxation solution time = 0.41 sec. (511.54 ticks)

        Nodes                                         Cuts/
   Node  Left     Objective  IInf  Best Integer    Best Bound    ItCnt     Gap

      0     0      786.5790   640                    786.5790     6481         
*     0+    0                          786.5790      786.5790             0.00%
      0     0        cutoff            786.5790      786.5790     6481    0.00%
Elapsed time = 2.95 sec. (2122.59 ticks, tree = 0.01 MB, solutions = 1)

Root node processing (before b&c):
  Real time             =    2.97 sec. (2124.53 ticks)
Parallel b&c, 32 threads:
  Real time             =    0.00 sec. (0.00 ticks)
  Sync time (average)   =    0.00 sec.
  Wait time (average)   =    0.00 sec.
                          ------------
Total (root+branch&cut) =    2.97 sec. (2124.53 ticks)

Solution pool: 1 solution saved.

MIP - Integer optimal solution:  Objective =  7.8657896700e+02
Solution time =    3.00 sec.  Iterations = 6481  Nodes = 0
Deterministic time = 2124.69 ticks  (708.23 ticks/sec)

CPLEX> Incumbent solution written to file 'C:\Users\llavin\Desktop\test919\logs\tmpx25ftxgk.cplex.sol'.
CPLEX> NOTE: no warmstart specified for MIP iteration, default behavior is true
NOTE: resolving with all competitive generators using storage-only solution to warmstart
Solving...

Welcome to IBM(R) ILOG(R) CPLEX(R) Interactive Optimizer 12.9.0.0
  with Simplex, Mixed Integer & Barrier Optimizers
5725-A06 5725-A29 5724-Y48 5724-Y49 5724-Y54 5724-Y55 5655-Y21
Copyright IBM Corp. 1988, 2019.  All Rights Reserved.

Type 'help' for a list of available commands.
Type 'help' followed by a command name for more
information on commands.

CPLEX> Logfile 'cplex.log' closed.
Logfile 'C:\Users\llavin\Desktop\test919\logs\tmpoqg4k8c9.cplex.log' open.
CPLEX> New value for parallel optimization mode: -1
CPLEX> New value for mixed integer optimality gap tolerance: 0.01
CPLEX> New value for integrality tolerance: 1e-09
CPLEX> New value for feasibility tolerance: 0.01
CPLEX> New value for deterministic time limit in ticks: 75000
CPLEX> Problem 'C:\Users\llavin\Desktop\test919\logs\tmptb7x_a4c.pyomo.lp' read.
Read time = 0.23 sec. (14.75 ticks)
CPLEX> MIP start file 'C:\Users\llavin\Desktop\test919\logs\tmpfxh0zfga.cplex.mst' read.
CPLEX> Problem name         : C:\Users\llavin\Desktop\test919\logs\tmptb7x_a4c.pyomo.lp
Objective sense      : Maximize
Variables            :   54525  [Nneg: 1,  Box: 22720,  Free: 4464,
                                 Binary: 27340]
Objective nonzeros   :    9725
Linear constraints   :  123205  [Less: 41346,  Greater: 59096,  Equal: 22763]
  Nonzeros           :  291753
  RHS nonzeros       :   67491

Variables            : Min LB: -5000.000        Max UB: 1000000.       
Objective nonzeros   : Min   : 0.3083333        Max   : 2500.000       
Linear constraints   :
  Nonzeros           : Min   : 0.3083333        Max   : 1000000.       
  RHS nonzeros       : Min   : 0.3083333        Max   : 1000000.       
CPLEX> CPXPARAM_Parallel                                -1
CPXPARAM_Simplex_Tolerances_Feasibility          0.01
CPXPARAM_DetTimeLimit                            75000
CPXPARAM_MIP_Tolerances_MIPGap                   0.01
CPXPARAM_MIP_Tolerances_Integrality              1.0000000000000001e-09
Warning:  No solution found from 1 MIP starts.
Retaining values of one MIP start for possible repair.
Tried aggregator 3 times.
MIP Presolve eliminated 88645 rows and 19689 columns.
MIP Presolve added 3380 rows and 0 columns.
MIP Presolve modified 24862 coefficients.
Aggregator did 13009 substitutions.
Reduced MIP has 24931 rows, 21271 columns, and 71099 nonzeros.
Reduced MIP has 8414 binaries, 0 generals, 0 SOSs, and 0 indicators.
Presolve time = 0.30 sec. (174.15 ticks)
Probing fixed 387 vars, tightened 2889 bounds.
Probing time = 1.27 sec. (894.44 ticks)
Tried aggregator 2 times.
MIP Presolve eliminated 874 rows and 774 columns.
MIP Presolve modified 2213 coefficients.
Aggregator did 33 substitutions.
Reduced MIP has 24024 rows, 20464 columns, and 68478 nonzeros.
Reduced MIP has 8027 binaries, 0 generals, 0 SOSs, and 0 indicators.
Presolve time = 0.11 sec. (67.29 ticks)
Probing time = 0.03 sec. (16.02 ticks)
Clique table members: 6272.
MIP emphasis: balance optimality and feasibility.
MIP search method: dynamic search.
Parallel mode: opportunistic, using up to 32 threads.
Root relaxation solution time = 0.33 sec. (259.23 ticks)

        Nodes                                         Cuts/
   Node  Left     Objective  IInf  Best Integer    Best Bound    ItCnt     Gap

      0     0   113452.2606  1741                 113452.2606     6311         
      0     0   109207.9614   649                   Cuts: 556     6619         
      0     0   108056.1499   568                   Cuts: 268     6773         
      0     0   107758.4451   531                   Cuts: 115     6833         
      0     0   107758.4451   515                    Cuts: 85     6866         
      0     0   107758.4451   492                    Cuts: 83     6898         
      0     0   107758.4451   487                    Cuts: 56     6917         
      0     0   103687.7568   448                    Cuts: 80     7023         
      0     0   100688.3546   417                   Cuts: 146     7136         
      0     0    97779.1921   406                    Cuts: 85     7208         
      0     0    88474.7512   396                    Cuts: 78     7244         
      0     0    88461.7539   391                    Cuts: 53     7267         
      0     0    88460.5841   386                    Cuts: 43     7281         
Repair heuristic found nothing.
      0     5    42594.9206   313                    Cuts: 18     7692         
Elapsed time = 13.34 sec. (7137.18 ticks, tree = 0.02 MB, solutions = 0)
    367    53    36791.1622   290                  43585.0564     9013         
    711   233    infeasible                        43585.0564    29756         
   1223   461    22567.2732   298                  43585.0564    35578         
   1876   915    -1933.4307   231                  43585.0564    45294         
   2661  1470     8157.0913   236                  43585.0564    51445         
   3442  1715    -4748.5072   192                  43585.0564    52253         
   4282  2667      821.1482   167                  43585.0564    55733         
   5204  2778     1503.5209   147                  43585.0564    55829         
   6174  3546      532.8754   190                  43585.0564    57481         
*  7580+ 3662                         1503.3121    43585.0564              --- 
Elapsed time = 27.66 sec. (9609.07 ticks, tree = 26.13 MB, solutions = 5)
   9441  3665        cutoff           1503.3121    43585.0564    58909     --- 
   9442  4885    infeasible           1503.3121    26047.4254    68062     --- 
  10154    69    25366.1973    81     1503.3121    26047.4254    69937     --- 
* 10553    94      integral     0     7745.2975    26047.4254    70853  236.30%
  11380   652    11550.9390    32    11403.5088    26047.4254    79452  128.42%
  12618   676        cutoff          14172.2248    25186.0398    79746   77.71%
  14896   452    15631.4252    35    15160.1653    16586.5797    86894    9.41%
  16729   397        cutoff          15160.1653    15662.0260    90039    3.31%
  17378   255    15641.8701    32    15160.1653    15662.0260   102861    3.31%

GUB cover cuts applied:  1
Cover cuts applied:  9
Implied bound cuts applied:  20
Flow cuts applied:  245
Mixed integer rounding cuts applied:  27
Gomory fractional cuts applied:  75

Root node processing (before b&c):
  Real time             =   10.86 sec. (7090.19 ticks)
Parallel b&c, 32 threads:
  Real time             =   54.14 sec. (15210.03 ticks)
  Sync time (average)   =    3.46 sec.
  Wait time (average)   =    0.25 sec.
                          ------------
Total (root+branch&cut) =   65.00 sec. (22300.22 ticks)

Solution pool: 16 solutions saved.

MIP - Integer optimal, tolerance (0.01/1e-06):  Objective =  1.5160165293e+04
Current MIP best bound =  1.5305524105e+04 (gap = 145.359, 0.96%)
Solution time =   65.03 sec.  Iterations = 111136  Nodes = 17485 (117)
Deterministic time = 22300.38 ticks  (342.91 ticks/sec)

CPLEX> Incumbent solution written to file 'C:\Users\llavin\Desktop\test919\logs\tmp9qievt86.cplex.sol'.
CPLEX> Exporting results... 
